MAX
0.0001z1 + 0.0001z2 + 0.0001z3 + 0.0001z4 + z5
SUBJECT TO
x1_1 + x1_2 + x1_3 + x1_4 + x1_5 + x1_6 + x1_7 + x1_8 + x1_9 + x1_10 = 1
x2_1 + x2_2 + x2_3 + x2_4 + x2_5 + x2_6 + x2_7 + x2_8 + x2_9 + x2_10 = 1
x3_1 + x3_2 + x3_3 + x3_4 + x3_5 + x3_6 + x3_7 + x3_8 + x3_9 + x3_10 = 1
x4_1 + x4_2 + x4_3 + x4_4 + x4_5 + x4_6 + x4_7 + x4_8 + x4_9 + x4_10 = 1
x5_1 + x5_2 + x5_3 + x5_4 + x5_5 + x5_6 + x5_7 + x5_8 + x5_9 + x5_10 = 1
x6_1 + x6_2 + x6_3 + x6_4 + x6_5 + x6_6 + x6_7 + x6_8 + x6_9 + x6_10 = 1
x7_1 + x7_2 + x7_3 + x7_4 + x7_5 + x7_6 + x7_7 + x7_8 + x7_9 + x7_10 = 1
x8_1 + x8_2 + x8_3 + x8_4 + x8_5 + x8_6 + x8_7 + x8_8 + x8_9 + x8_10 = 1
x9_1 + x9_2 + x9_3 + x9_4 + x9_5 + x9_6 + x9_7 + x9_8 + x9_9 + x9_10 = 1
x10_1 + x10_2 + x10_3 + x10_4 + x10_5 + x10_6 + x10_7 + x10_8 + x10_9 + x10_10 = 1
x1_1 + x2_1 + x3_1 + x4_1 + x5_1 + x6_1 + x7_1 + x8_1 + x9_1 + x10_1 = 1
x1_2 + x2_2 + x3_2 + x4_2 + x5_2 + x6_2 + x7_2 + x8_2 + x9_2 + x10_2 = 1
x1_3 + x2_3 + x3_3 + x4_3 + x5_3 + x6_3 + x7_3 + x8_3 + x9_3 + x10_3 = 1
x1_4 + x2_4 + x3_4 + x4_4 + x5_4 + x6_4 + x7_4 + x8_4 + x9_4 + x10_4 = 1
x1_5 + x2_5 + x3_5 + x4_5 + x5_5 + x6_5 + x7_5 + x8_5 + x9_5 + x10_5 = 1
x1_6 + x2_6 + x3_6 + x4_6 + x5_6 + x6_6 + x7_6 + x8_6 + x9_6 + x10_6 = 1
x1_7 + x2_7 + x3_7 + x4_7 + x5_7 + x6_7 + x7_7 + x8_7 + x9_7 + x10_7 = 1
x1_8 + x2_8 + x3_8 + x4_8 + x5_8 + x6_8 + x7_8 + x8_8 + x9_8 + x10_8 = 1
x1_9 + x2_9 + x3_9 + x4_9 + x5_9 + x6_9 + x7_9 + x8_9 + x9_9 + x10_9 = 1
x1_10 + x2_10 + x3_10 + x4_10 + x5_10 + x6_10 + x7_10 + x8_10 + x9_10 + x10_10 = 1
-11x1_1-7x1_2-17x1_3-19x1_4-9x1_5-15x1_6-7x1_7-14x1_8-13x1_9-2x1_10-12x2_1-8x2_2-6x2_3-18x2_4-2x2_5-12x2_6-19x2_7-19x2_8-15x2_9-15x2_10-20x3_1-3x3_2-4x3_3-5x3_4-2x3_5-18x3_6-11x3_7-11x3_8-14x3_9-9x3_10-1x4_1-11x4_2-10x4_3-18x4_4-19x4_5-8x4_6-6x4_7-13x4_8-7x4_9-20x4_10-17x5_1-4x5_2-15x5_3-15x5_4-8x5_5-9x5_6-6x5_7-18x5_8-14x5_9-16x5_10-7x6_1-5x6_2-18x6_3-20x6_4-10x6_5-4x6_6-19x6_7-2x6_8-16x6_9-9x6_10-19x7_1-5x7_2-1x7_3-20x7_4-19x7_5-16x7_6-17x7_7-18x7_8-18x7_9-12x7_10-11x8_1-11x8_2-7x8_3-3x8_4-17x8_5-19x8_6-20x8_7-14x8_8-10x8_9-2x8_10-10x9_1-3x9_2-4x9_3-3x9_4-6x9_5-14x9_6-17x9_7-20x9_8-10x9_9-2x9_10-17x10_1-15x10_2-7x10_3-9x10_4-4x10_5-3x10_6-18x10_7-16x10_8-9x10_9-12x10_10 - z1 = 0
-19x1_1-11x1_2-4x1_3-16x1_4-2x1_5-6x1_6-9x1_7-1x1_8-8x1_9-13x1_10-17x2_1-9x2_2-3x2_3-11x2_4-13x2_5-18x2_6-10x2_7-11x2_8-14x2_9-19x2_10-9x3_1-8x3_2-8x3_3-7x3_4-2x3_5-20x3_6-18x3_7-11x3_8-13x3_9-1x3_10-6x4_1-2x4_2-20x4_3-1x4_4-17x4_5-7x4_6-15x4_7-16x4_8-5x4_9-4x4_10-7x5_1-13x5_2-14x5_3-12x5_4-1x5_5-10x5_6-19x5_7-11x5_8-15x5_9-8x5_10-5x6_1-11x6_2-9x6_3-11x6_4-16x6_5-9x6_6-17x6_7-12x6_8-15x6_9-13x6_10-15x7_1-14x7_2-12x7_3-8x7_4-3x7_5-12x7_6-5x7_7-20x7_8-15x7_9-1x7_10-5x8_1-17x8_2-16x8_3-14x8_4-11x8_5-13x8_6-20x8_7-11x8_8-14x8_9-3x8_10-11x9_1-5x9_2-13x9_3-7x9_4-9x9_5-18x9_6-13x9_7-13x9_8-13x9_9-11x9_10-3x10_1-1x10_2-2x10_3-8x10_4-1x10_5-9x10_6-4x10_7-4x10_8-17x10_9-17x10_10 - z2 = 0
-8x1_1-15x1_2-12x1_3-10x1_4-4x1_5-20x1_6-9x1_7-6x1_8-1x1_9-20x1_10-8x2_1-20x2_2-19x2_3-16x2_4-18x2_5-3x2_6-1x2_7-9x2_8-17x2_9-13x2_10-9x3_1-14x3_2-3x3_3-18x3_4-6x3_5-19x3_6-20x3_7-9x3_8-11x3_9-5x3_10-8x4_1-6x4_2-1x4_3-6x4_4-7x4_5-19x4_6-7x4_7-2x4_8-8x4_9-8x4_10-8x5_1-1x5_2-15x5_3-13x5_4-17x5_5-17x5_6-2x5_7-12x5_8-13x5_9-9x5_10-6x6_1-7x6_2-3x6_3-6x6_4-20x6_5-16x6_6-4x6_7-12x6_8-12x6_9-5x6_10-14x7_1-12x7_2-3x7_3-6x7_4-4x7_5-19x7_6-11x7_7-9x7_8-1x7_9-2x7_10-8x8_1-10x8_2-14x8_3-17x8_4-10x8_5-4x8_6-15x8_7-7x8_8-11x8_9-11x8_10-14x9_1-12x9_2-18x9_3-9x9_4-19x9_5-2x9_6-8x9_7-17x9_8-10x9_9-11x9_10-1x10_1-14x10_2-17x10_3-20x10_4-7x10_5-18x10_6-14x10_7-19x10_8-10x10_9-12x10_10 - z3 = 0
-20x1_1-11x1_2-17x1_3-16x1_4-17x1_5-17x1_6-7x1_7-2x1_8-5x1_9-10x1_10-5x2_1-9x2_2-15x2_3-15x2_4-14x2_5-20x2_6-11x2_7-5x2_8-1x2_9-8x2_10-9x3_1-12x3_2-11x3_3-9x3_4-20x3_5-1x3_6-11x3_7-13x3_8-5x3_9-12x3_10-10x4_1-6x4_2-19x4_3-3x4_4-9x4_5-14x4_6-16x4_7-3x4_8-4x4_9-11x4_10-6x5_1-13x5_2-12x5_3-8x5_4-4x5_5-4x5_6-20x5_7-20x5_8-2x5_9-6x5_10-9x6_1-15x6_2-11x6_3-6x6_4-1x6_5-20x6_6-10x6_7-16x6_8-3x6_9-8x6_10-20x7_1-11x7_2-5x7_3-19x7_4-19x7_5-16x7_6-7x7_7-20x7_8-18x7_9-3x7_10-7x8_1-15x8_2-18x8_3-11x8_4-20x8_5-20x8_6-13x8_7-7x8_8-15x8_9-13x8_10-7x9_1-2x9_2-1x9_3-4x9_4-7x9_5-19x9_6-2x9_7-10x9_8-15x9_9-5x9_10-11x10_1-19x10_2-18x10_3-12x10_4-1x10_5-8x10_6-5x10_7-9x10_8-1x10_9-12x10_10 - z4 = 0
-14x1_1-9x1_2-1x1_3-14x1_4-14x1_5-18x1_6-10x1_7-12x1_8-7x1_9-7x1_10-10x2_1-1x2_2-18x2_3-12x2_4-2x2_5-10x2_6-5x2_7-17x2_8-16x2_9-19x2_10-4x3_1-18x3_2-18x3_3-15x3_4-10x3_5-3x3_6-4x3_7-15x3_8-18x3_9-1x3_10-18x4_1-19x4_2-17x4_3-13x4_4-12x4_5-20x4_6-20x4_7-15x4_8-11x4_9-10x4_10-5x5_1-2x5_2-7x5_3-12x5_4-13x5_5-8x5_6-11x5_7-18x5_8-13x5_9-15x5_10-1x6_1-15x6_2-19x6_3-13x6_4-8x6_5-8x6_6-17x6_7-19x6_8-7x6_9-13x6_10-8x7_1-16x7_2-10x7_3-9x7_4-13x7_5-17x7_6-12x7_7-2x7_8-16x7_9-4x7_10-11x8_1-15x8_2-17x8_3-18x8_4-18x8_5-8x8_6-20x8_7-4x8_8-8x8_9-19x8_10-11x9_1-10x9_2-20x9_3-14x9_4-1x9_5-7x9_6-16x9_7-19x9_8-6x9_9-10x9_10-5x10_1-2x10_2-17x10_3-1x10_4-20x10_5-14x10_6-2x10_7-11x10_8-19x10_9-8x10_10 - z5 = 0
BOUNDS
z1 free
z2 free
z3 free
z4 free
z5 free
BINARIES
x1_1
x1_2
x1_3
x1_4
x1_5
x1_6
x1_7
x1_8
x1_9
x1_10
x2_1
x2_2
x2_3
x2_4
x2_5
x2_6
x2_7
x2_8
x2_9
x2_10
x3_1
x3_2
x3_3
x3_4
x3_5
x3_6
x3_7
x3_8
x3_9
x3_10
x4_1
x4_2
x4_3
x4_4
x4_5
x4_6
x4_7
x4_8
x4_9
x4_10
x5_1
x5_2
x5_3
x5_4
x5_5
x5_6
x5_7
x5_8
x5_9
x5_10
x6_1
x6_2
x6_3
x6_4
x6_5
x6_6
x6_7
x6_8
x6_9
x6_10
x7_1
x7_2
x7_3
x7_4
x7_5
x7_6
x7_7
x7_8
x7_9
x7_10
x8_1
x8_2
x8_3
x8_4
x8_5
x8_6
x8_7
x8_8
x8_9
x8_10
x9_1
x9_2
x9_3
x9_4
x9_5
x9_6
x9_7
x9_8
x9_9
x9_10
x10_1
x10_2
x10_3
x10_4
x10_5
x10_6
x10_7
x10_8
x10_9
x10_10
END